(set-logic HORN)
(set-option :fp.engine spacer)
(set-option :model true)

(declare-fun q1 (Int) Bool)
(declare-fun q2 (Int Int) Bool)
(declare-fun q3 (Int Int Int) Bool)
(declare-fun q4 (Int Int Int Int Int) Bool)
(declare-fun q5 (Int Int Int Int Int Int Int) Bool)
(declare-fun q6 (Int Int Int Int Int Int Int Int Int) Bool)
(declare-fun q7 (Int Int Int Int Int Int Int Int) Bool)
(declare-fun q8 (Int Int Int Int Int Int Int Int) Bool)
(declare-fun q9 (Int Int Int Int Int Int Int Int) Bool)
(declare-fun q10 (Int Int Int Int Int Int) Bool)
(declare-fun q11 (Int Int Int Int) Bool)
(declare-fun q12 (Int Int Int Int Int Int) Bool)
(declare-fun q13 (Int Int Int Int) Bool)
(declare-fun q14 (Int Int Int Int Int Int) Bool)
(declare-fun q15 (Int Int Int Int) Bool)
(declare-fun q16 (Int Int Int Int Int Int) Bool)
(declare-fun q17 (Int Int Int Int) Bool)
(declare-fun q18 (Int Int Int Int) Bool)
(declare-fun q19 (Int Int) Bool)
(declare-fun q20 (Int) Bool)
(declare-fun q21 () Bool)
(assert (forall ((|unused| Int)) (=> (and (= |unused| 0)) (q1 |unused|))))
(assert (forall ((|a| Int) (|unused| Int)) (=> (and (q1 |unused|) (= |a| 4)) (q2 |unused| |a|))))
(assert (forall ((|a| Int) (|b| Int) (|unused| Int)) (=> (and (q2 |unused| |a|) (= |b| 5)) (q3 |unused| |a| |b|))))
(assert (forall ((|a| Int) (|a'| Int) (|b| Int) (|r_a*| Int) (|r_a^| Int) (|unused| Int)) (=> (and (q3 |unused| |a| |b|) (= |r_a*| |a|) (= |a'| |r_a^|)) (q4 |unused| |a'| |b| |r_a*| |r_a^|))))
(assert (forall ((|a| Int) (|b| Int) (|b'| Int) (|r_a*| Int) (|r_a^| Int) (|r_b*| Int) (|r_b^| Int) (|unused| Int)) (=> (and (q4 |unused| |a| |b| |r_a*| |r_a^|) (= |r_b*| |b|) (= |b'| |r_b^|)) (q5 |unused| |a| |b'| |r_a*| |r_a^| |r_b*| |r_b^|))))
(assert (forall ((|a| Int) (|b| Int) (|r_a*| Int) (|r_a^| Int) (|r_b*| Int) (|r_b^| Int) (|r_max*| Int) (|r_max^| Int) (|unused| Int) (|unused'| Int)) (=> (and (q5 |unused| |a| |b| |r_a*| |r_a^| |r_b*| |r_b^|) (= |r_max*| |unused|) (= |unused'| |r_max^|)) (q6 |unused'| |a| |b| |r_a*| |r_a^| |r_b*| |r_b^| |r_max*| |r_max^|))))
(assert (forall ((|a| Int) (|b| Int) (|r_a*| Int) (|r_a^| Int) (|r_b*| Int) (|r_b^| Int) (|r_max*| Int) (|r_max^| Int) (|unused| Int)) (=> (and (q6 |unused| |a| |b| |r_a*| |r_a^| |r_b*| |r_b^| |r_max*| |r_max^|)) (q7 |a| |b| |r_a*| |r_a^| |r_b*| |r_b^| |r_max*| |r_max^|))))
(assert (forall ((|a| Int) (|b| Int) (|r_a*| Int) (|r_a^| Int) (|r_b*| Int) (|r_b^| Int) (|r_max*| Int) (|r_max^| Int)) (=> (and (q7 |a| |b| |r_a*| |r_a^| |r_b*| |r_b^| |r_max*| |r_max^|) (> |r_a*| |r_b*|)) (q8 |a| |b| |r_a*| |r_a^| |r_b*| |r_b^| |r_max*| |r_max^|))))
(assert (forall ((|a| Int) (|b| Int) (|r_a*| Int) (|r_a^| Int) (|r_b*| Int) (|r_b^| Int) (|r_max*| Int) (|r_max^| Int)) (=> (and (q8 |a| |b| |r_a*| |r_a^| |r_b*| |r_b^| |r_max*| |r_max^|) (= |r_b^| |r_b*|)) (q10 |a| |b| |r_a*| |r_a^| |r_max*| |r_max^|))))
(assert (forall ((|a| Int) (|b| Int) (|r_a*| Int) (|r_a^| Int) (|r_max*| Int) (|r_max^| Int)) (=> (and (q10 |a| |b| |r_a*| |r_a^| |r_max*| |r_max^|) (= |r_max^| |r_max*|)) (q11 |a| |b| |r_a*| |r_a^|))))
(assert (forall ((|a| Int) (|b| Int) (|r_a'*| Int) (|r_a*| Int) (|r_a^| Int) (|r_max*| Int) (|r_max^| Int)) (=> (and (q11 |a| |b| |r_a*| |r_a^|) (= |r_max*| |r_a*|) (= |r_a'*| |r_max^|)) (q12 |a| |b| |r_a'*| |r_a^| |r_max*| |r_max^|))))
(assert (forall ((|a| Int) (|b| Int) (|r_a*| Int) (|r_a^| Int) (|r_max*| Int) (|r_max^| Int)) (=> (and (q12 |a| |b| |r_a*| |r_a^| |r_max*| |r_max^|) (= |r_a^| |r_a*|)) (q13 |a| |b| |r_max*| |r_max^|))))
(assert (forall ((|a| Int) (|b| Int) (|r_a*| Int) (|r_a^| Int) (|r_b*| Int) (|r_b^| Int) (|r_max*| Int) (|r_max^| Int)) (=> (and (q7 |a| |b| |r_a*| |r_a^| |r_b*| |r_b^| |r_max*| |r_max^|) (not (> |r_a*| |r_b*|))) (q9 |a| |b| |r_a*| |r_a^| |r_b*| |r_b^| |r_max*| |r_max^|))))
(assert (forall ((|a| Int) (|b| Int) (|r_a*| Int) (|r_a^| Int) (|r_b*| Int) (|r_b^| Int) (|r_max*| Int) (|r_max^| Int)) (=> (and (q9 |a| |b| |r_a*| |r_a^| |r_b*| |r_b^| |r_max*| |r_max^|) (= |r_a^| |r_a*|)) (q14 |a| |b| |r_b*| |r_b^| |r_max*| |r_max^|))))
(assert (forall ((|a| Int) (|b| Int) (|r_b*| Int) (|r_b^| Int) (|r_max*| Int) (|r_max^| Int)) (=> (and (q14 |a| |b| |r_b*| |r_b^| |r_max*| |r_max^|) (= |r_max^| |r_max*|)) (q15 |a| |b| |r_b*| |r_b^|))))
(assert (forall ((|a| Int) (|b| Int) (|r_b'*| Int) (|r_b*| Int) (|r_b^| Int) (|r_max*| Int) (|r_max^| Int)) (=> (and (q15 |a| |b| |r_b*| |r_b^|) (= |r_max*| |r_b*|) (= |r_b'*| |r_max^|)) (q16 |a| |b| |r_b'*| |r_b^| |r_max*| |r_max^|))))
(assert (forall ((|a| Int) (|b| Int) (|r_b*| Int) (|r_b^| Int) (|r_max*| Int) (|r_max^| Int)) (=> (and (q16 |a| |b| |r_b*| |r_b^| |r_max*| |r_max^|) (= |r_b^| |r_b*|)) (q17 |a| |b| |r_max*| |r_max^|))))
(assert (forall ((|a| Int) (|b| Int) (|r_max*| Int) (|r_max^| Int)) (=> (and (q13 |a| |b| |r_max*| |r_max^|)) (q17 |a| |b| |r_max*| |r_max^|))))
(assert (forall ((|a| Int) (|b| Int) (|r_max'*| Int) (|r_max*| Int) (|r_max^| Int)) (=> (and (q17 |a| |b| |r_max*| |r_max^|) (= |r_max'*| (+ |r_max*| 1))) (q18 |a| |b| |r_max'*| |r_max^|))))
(assert (forall ((|a| Int) (|b| Int) (|r_max*| Int) (|r_max^| Int)) (=> (and (q18 |a| |b| |r_max*| |r_max^|) (= |r_max^| |r_max*|)) (q19 |a| |b|))))
(assert (forall ((|a| Int) (|b| Int)) (=> (and (q19 |a| |b|)) (distinct |a| |b|))))
(assert (forall ((|a| Int) (|b| Int)) (=> (and (q19 |a| |b|)) (q20 |b|))))
(assert (forall ((|b| Int)) (=> (and (q20 |b|)) q21)))

(check-sat)
(get-model)
